% Data file generated from RandomInstances/20_0.85_2.col DIMACS file
size = 20;

chi = 11;

adjacency = [|0,1,1,1,0,0,1,1,1,1,1,1,1,1,1,1,1,1,0,1,
|1,0,1,1,1,1,0,1,1,1,0,1,1,1,1,1,1,1,1,1,
|1,1,0,1,1,1,1,1,1,1,1,1,1,1,1,1,1,1,1,1,
|1,1,1,0,1,1,1,0,0,1,1,1,0,1,1,1,1,1,1,1,
|0,1,1,1,0,1,1,1,1,0,1,1,1,1,1,1,1,1,1,1,
|0,1,1,1,1,0,1,1,1,1,1,1,1,1,1,1,1,1,1,1,
|1,0,1,1,1,1,0,0,0,1,1,1,0,1,1,1,0,1,1,0,
|1,1,1,0,1,1,0,0,0,1,1,1,1,0,1,1,1,1,0,0,
|1,1,1,0,1,1,0,0,0,1,1,0,1,1,1,0,1,1,0,1,
|1,1,1,1,0,1,1,1,1,0,1,1,1,1,1,1,1,1,0,1,
|1,0,1,1,1,1,1,1,1,1,0,1,1,0,1,1,1,1,1,1,
|1,1,1,1,1,1,1,1,0,1,1,0,1,1,1,1,1,1,1,0,
|1,1,1,0,1,1,0,1,1,1,1,1,0,0,1,1,1,1,1,1,
|1,1,1,1,1,1,1,0,1,1,0,1,0,0,1,1,1,1,1,1,
|1,1,1,1,1,1,1,1,1,1,1,1,1,1,0,0,1,1,1,1,
|1,1,1,1,1,1,1,1,0,1,1,1,1,1,0,0,1,1,0,1,
|1,1,1,1,1,1,0,1,1,1,1,1,1,1,1,1,0,1,0,0,
|1,1,1,1,1,1,1,1,1,1,1,1,1,1,1,1,1,0,1,1,
|0,1,1,1,1,1,1,0,0,0,1,1,1,1,1,0,0,1,0,0,
|1,1,1,1,1,1,0,0,1,1,1,0,1,1,1,1,0,1,0,0,
|];